NAME : portcgen-15-10
COMMENT : portcgen N=15, seed=10
TYPE : TSP
DIMENSION : 15
EDGE_WEIGHT_TYPE : EUC_2D
NODE_COORD_SECTION
1 -245310 409433
2 268704 180584
3 109480 110173
4 327139 -120124
5 17315 -71820
6 -50191 -11627
7 266083 59792
8 100890 115217
9 -401750 17810
10 -269721 257251
11 70019 -300262
12 -74718 90061
13 -295628 -252531
14 -165347 265057
15 131430 -97964
